predicate cumulativeChoco(array [int] of var int: s,array [int] of var int: d,array [int] of var int: r,var int: b);
array [1..2] of int: X_INTRODUCED_33_ = [1,-1];
array [1..21] of int: X_INTRODUCED_65_ = [2,10,9,5,1,8,4,4,1,3,8,3,6,10,3,3,5,3,6,1,6];
array [1..21] of int: X_INTRODUCED_66_ = [4,1,2,9,9,10,4,6,3,9,6,8,3,4,6,7,9,1,5,5,1];
array [1..24] of int: X_INTRODUCED_68_ = [10,10,4,9,6,4,10,9,3,9,9,5,9,1,1,1,6,8,10,8,7,4,7,8];
array [1..24] of int: X_INTRODUCED_69_ = [2,2,3,9,9,3,7,10,8,4,6,3,9,6,8,3,5,6,9,5,1,5,5,1];
array [1..24] of int: X_INTRODUCED_71_ = [8,3,8,8,7,8,2,3,8,3,8,10,5,4,6,6,4,10,4,3,2,2,6,3];
array [1..24] of int: X_INTRODUCED_72_ = [4,2,2,3,9,9,10,8,4,3,9,6,8,4,3,4,7,9,5,1,4,5,5,1];
array [1..22] of int: X_INTRODUCED_74_ = [5,10,1,9,3,1,2,6,7,2,10,6,4,9,7,5,5,4,9,7,3,7];
array [1..22] of int: X_INTRODUCED_75_ = [4,2,1,2,3,7,10,8,6,3,9,6,8,4,3,6,7,9,5,1,4,5];
array [1..54] of int: X_INTRODUCED_240_ = [1,-5,-4,-2,-2,-4,-2,-2,-1,-5,-5,-2,-2,-2,-2,-1,-1,-1,-3,-3,-5,-5,-1,-4,-5,-2,-4,-1,-5,-5,-3,-4,-2,-3,-4,-2,-2,-4,-3,-2,-4,-5,-2,-1,-5,-4,-5,-1,-5,-3,-1,-3,-4,-5];
var 0..58: X_INTRODUCED_0_;
var 0..58: X_INTRODUCED_1_;
var 0..58: X_INTRODUCED_2_;
var 0..58: X_INTRODUCED_3_;
var 0..58: X_INTRODUCED_4_;
var 0..58: X_INTRODUCED_5_;
var 0..58: X_INTRODUCED_6_;
var 0..58: X_INTRODUCED_7_;
var 0..58: X_INTRODUCED_8_;
var 0..58: X_INTRODUCED_9_;
var 0..58: X_INTRODUCED_10_;
var 0..58: X_INTRODUCED_11_;
var 0..58: X_INTRODUCED_12_;
var 0..58: X_INTRODUCED_13_;
var 0..58: X_INTRODUCED_14_;
var 0..58: X_INTRODUCED_15_;
var 0..58: X_INTRODUCED_16_;
var 0..58: X_INTRODUCED_17_;
var 0..58: X_INTRODUCED_18_;
var 0..58: X_INTRODUCED_19_;
var 0..58: X_INTRODUCED_20_;
var 0..58: X_INTRODUCED_21_;
var 0..58: X_INTRODUCED_22_;
var 0..58: X_INTRODUCED_23_;
var 0..58: X_INTRODUCED_24_;
var 0..58: X_INTRODUCED_25_;
var 0..58: X_INTRODUCED_26_;
var 0..58: X_INTRODUCED_27_;
var 0..58: X_INTRODUCED_28_;
var 0..58: X_INTRODUCED_29_;
var 0..58: X_INTRODUCED_30_;
var 0..58: X_INTRODUCED_31_;
var 0..3967: objective:: output_var:: is_defined_var;
var -1..57: X_INTRODUCED_78_ ::var_is_introduced :: is_defined_var;
var 0..57: X_INTRODUCED_79_ ::var_is_introduced :: is_defined_var;
var -57..1: X_INTRODUCED_81_ ::var_is_introduced :: is_defined_var;
var 0..1: X_INTRODUCED_82_ ::var_is_introduced :: is_defined_var;
var -2..56: X_INTRODUCED_85_ ::var_is_introduced :: is_defined_var;
var 0..56: X_INTRODUCED_86_ ::var_is_introduced :: is_defined_var;
var -56..2: X_INTRODUCED_87_ ::var_is_introduced :: is_defined_var;
var 0..2: X_INTRODUCED_88_ ::var_is_introduced :: is_defined_var;
var -51..7: X_INTRODUCED_91_ ::var_is_introduced :: is_defined_var;
var 0..7: X_INTRODUCED_92_ ::var_is_introduced :: is_defined_var;
var 0..58: X_INTRODUCED_95_ ::var_is_introduced :: is_defined_var;
var -58..0: X_INTRODUCED_96_ ::var_is_introduced :: is_defined_var;
var -9..49: X_INTRODUCED_100_ ::var_is_introduced :: is_defined_var;
var 0..49: X_INTRODUCED_101_ ::var_is_introduced :: is_defined_var;
var -10..48: X_INTRODUCED_104_ ::var_is_introduced :: is_defined_var;
var 0..48: X_INTRODUCED_105_ ::var_is_introduced :: is_defined_var;
var -48..10: X_INTRODUCED_106_ ::var_is_introduced :: is_defined_var;
var 0..10: X_INTRODUCED_107_ ::var_is_introduced :: is_defined_var;
var -18..40: X_INTRODUCED_109_ ::var_is_introduced :: is_defined_var;
var 0..40: X_INTRODUCED_110_ ::var_is_introduced :: is_defined_var;
var -40..18: X_INTRODUCED_111_ ::var_is_introduced :: is_defined_var;
var 0..18: X_INTRODUCED_112_ ::var_is_introduced :: is_defined_var;
var -52..6: X_INTRODUCED_114_ ::var_is_introduced :: is_defined_var;
var 0..6: X_INTRODUCED_115_ ::var_is_introduced :: is_defined_var;
var -9..49: X_INTRODUCED_117_ ::var_is_introduced :: is_defined_var;
var 0..49: X_INTRODUCED_118_ ::var_is_introduced :: is_defined_var;
var -49..9: X_INTRODUCED_119_ ::var_is_introduced :: is_defined_var;
var 0..9: X_INTRODUCED_120_ ::var_is_introduced :: is_defined_var;
var -4..54: X_INTRODUCED_123_ ::var_is_introduced :: is_defined_var;
var 0..54: X_INTRODUCED_124_ ::var_is_introduced :: is_defined_var;
var -54..4: X_INTRODUCED_125_ ::var_is_introduced :: is_defined_var;
var 0..4: X_INTRODUCED_126_ ::var_is_introduced :: is_defined_var;
var -39..19: X_INTRODUCED_128_ ::var_is_introduced :: is_defined_var;
var 0..19: X_INTRODUCED_129_ ::var_is_introduced :: is_defined_var;
var -22..36: X_INTRODUCED_131_ ::var_is_introduced :: is_defined_var;
var 0..36: X_INTRODUCED_132_ ::var_is_introduced :: is_defined_var;
var -36..22: X_INTRODUCED_133_ ::var_is_introduced :: is_defined_var;
var 0..22: X_INTRODUCED_134_ ::var_is_introduced :: is_defined_var;
var -24..34: X_INTRODUCED_137_ ::var_is_introduced :: is_defined_var;
var 0..34: X_INTRODUCED_138_ ::var_is_introduced :: is_defined_var;
var -34..24: X_INTRODUCED_139_ ::var_is_introduced :: is_defined_var;
var 0..24: X_INTRODUCED_140_ ::var_is_introduced :: is_defined_var;
var -8..50: X_INTRODUCED_143_ ::var_is_introduced :: is_defined_var;
var 0..50: X_INTRODUCED_144_ ::var_is_introduced :: is_defined_var;
var -50..8: X_INTRODUCED_145_ ::var_is_introduced :: is_defined_var;
var 0..8: X_INTRODUCED_146_ ::var_is_introduced :: is_defined_var;
var -29..29: X_INTRODUCED_148_ ::var_is_introduced :: is_defined_var;
var 0..29: X_INTRODUCED_149_ ::var_is_introduced :: is_defined_var;
var -29..29: X_INTRODUCED_150_ ::var_is_introduced :: is_defined_var;
var 0..29: X_INTRODUCED_151_ ::var_is_introduced :: is_defined_var;
var -37..21: X_INTRODUCED_154_ ::var_is_introduced :: is_defined_var;
var 0..21: X_INTRODUCED_155_ ::var_is_introduced :: is_defined_var;
var -21..37: X_INTRODUCED_156_ ::var_is_introduced :: is_defined_var;
var 0..37: X_INTRODUCED_157_ ::var_is_introduced :: is_defined_var;
var -12..46: X_INTRODUCED_159_ ::var_is_introduced :: is_defined_var;
var 0..46: X_INTRODUCED_160_ ::var_is_introduced :: is_defined_var;
var -46..12: X_INTRODUCED_161_ ::var_is_introduced :: is_defined_var;
var 0..12: X_INTRODUCED_162_ ::var_is_introduced :: is_defined_var;
var -31..27: X_INTRODUCED_165_ ::var_is_introduced :: is_defined_var;
var 0..27: X_INTRODUCED_166_ ::var_is_introduced :: is_defined_var;
var -14..44: X_INTRODUCED_169_ ::var_is_introduced :: is_defined_var;
var 0..44: X_INTRODUCED_170_ ::var_is_introduced :: is_defined_var;
var -44..14: X_INTRODUCED_171_ ::var_is_introduced :: is_defined_var;
var 0..14: X_INTRODUCED_172_ ::var_is_introduced :: is_defined_var;
var -32..26: X_INTRODUCED_175_ ::var_is_introduced :: is_defined_var;
var 0..26: X_INTRODUCED_176_ ::var_is_introduced :: is_defined_var;
var -26..32: X_INTRODUCED_177_ ::var_is_introduced :: is_defined_var;
var 0..32: X_INTRODUCED_178_ ::var_is_introduced :: is_defined_var;
var -24..34: X_INTRODUCED_180_ ::var_is_introduced :: is_defined_var;
var 0..34: X_INTRODUCED_181_ ::var_is_introduced :: is_defined_var;
var -34..24: X_INTRODUCED_182_ ::var_is_introduced :: is_defined_var;
var 0..24: X_INTRODUCED_183_ ::var_is_introduced :: is_defined_var;
var -39..19: X_INTRODUCED_186_ ::var_is_introduced :: is_defined_var;
var 0..19: X_INTRODUCED_187_ ::var_is_introduced :: is_defined_var;
var -19..39: X_INTRODUCED_188_ ::var_is_introduced :: is_defined_var;
var 0..39: X_INTRODUCED_189_ ::var_is_introduced :: is_defined_var;
var -26..32: X_INTRODUCED_191_ ::var_is_introduced :: is_defined_var;
var 0..32: X_INTRODUCED_192_ ::var_is_introduced :: is_defined_var;
var -35..23: X_INTRODUCED_195_ ::var_is_introduced :: is_defined_var;
var 0..23: X_INTRODUCED_196_ ::var_is_introduced :: is_defined_var;
var -23..35: X_INTRODUCED_197_ ::var_is_introduced :: is_defined_var;
var 0..35: X_INTRODUCED_198_ ::var_is_introduced :: is_defined_var;
var -21..37: X_INTRODUCED_201_ ::var_is_introduced :: is_defined_var;
var 0..37: X_INTRODUCED_202_ ::var_is_introduced :: is_defined_var;
var -37..21: X_INTRODUCED_203_ ::var_is_introduced :: is_defined_var;
var 0..21: X_INTRODUCED_204_ ::var_is_introduced :: is_defined_var;
var -40..18: X_INTRODUCED_206_ ::var_is_introduced :: is_defined_var;
var 0..18: X_INTRODUCED_207_ ::var_is_introduced :: is_defined_var;
var -18..40: X_INTRODUCED_208_ ::var_is_introduced :: is_defined_var;
var 0..40: X_INTRODUCED_209_ ::var_is_introduced :: is_defined_var;
var -45..13: X_INTRODUCED_212_ ::var_is_introduced :: is_defined_var;
var 0..13: X_INTRODUCED_213_ ::var_is_introduced :: is_defined_var;
var -13..45: X_INTRODUCED_214_ ::var_is_introduced :: is_defined_var;
var 0..45: X_INTRODUCED_215_ ::var_is_introduced :: is_defined_var;
var -41..17: X_INTRODUCED_218_ ::var_is_introduced :: is_defined_var;
var 0..17: X_INTRODUCED_219_ ::var_is_introduced :: is_defined_var;
var -17..41: X_INTRODUCED_220_ ::var_is_introduced :: is_defined_var;
var 0..41: X_INTRODUCED_221_ ::var_is_introduced :: is_defined_var;
var -49..9: X_INTRODUCED_224_ ::var_is_introduced :: is_defined_var;
var 0..9: X_INTRODUCED_225_ ::var_is_introduced :: is_defined_var;
var -9..49: X_INTRODUCED_226_ ::var_is_introduced :: is_defined_var;
var 0..49: X_INTRODUCED_227_ ::var_is_introduced :: is_defined_var;
var -30..28: X_INTRODUCED_229_ ::var_is_introduced :: is_defined_var;
var 0..28: X_INTRODUCED_230_ ::var_is_introduced :: is_defined_var;
var -58..0: X_INTRODUCED_232_ ::var_is_introduced :: is_defined_var;
var 0..58: X_INTRODUCED_234_ ::var_is_introduced :: is_defined_var;
var 0..58: X_INTRODUCED_235_ ::var_is_introduced :: is_defined_var;
array [1..32] of var int: s:: output_array([1..32]) = [X_INTRODUCED_0_,X_INTRODUCED_1_,X_INTRODUCED_2_,X_INTRODUCED_3_,X_INTRODUCED_4_,X_INTRODUCED_5_,X_INTRODUCED_6_,X_INTRODUCED_7_,X_INTRODUCED_8_,X_INTRODUCED_9_,X_INTRODUCED_10_,X_INTRODUCED_11_,X_INTRODUCED_12_,X_INTRODUCED_13_,X_INTRODUCED_14_,X_INTRODUCED_15_,X_INTRODUCED_16_,X_INTRODUCED_17_,X_INTRODUCED_18_,X_INTRODUCED_19_,X_INTRODUCED_20_,X_INTRODUCED_21_,X_INTRODUCED_22_,X_INTRODUCED_23_,X_INTRODUCED_24_,X_INTRODUCED_25_,X_INTRODUCED_26_,X_INTRODUCED_27_,X_INTRODUCED_28_,X_INTRODUCED_29_,X_INTRODUCED_30_,X_INTRODUCED_31_];
array [1..21] of var int: X_INTRODUCED_67_ ::var_is_introduced  = [X_INTRODUCED_1_,X_INTRODUCED_3_,X_INTRODUCED_4_,X_INTRODUCED_6_,X_INTRODUCED_7_,X_INTRODUCED_10_,X_INTRODUCED_12_,X_INTRODUCED_13_,X_INTRODUCED_14_,X_INTRODUCED_15_,X_INTRODUCED_16_,X_INTRODUCED_17_,X_INTRODUCED_19_,X_INTRODUCED_20_,X_INTRODUCED_22_,X_INTRODUCED_23_,X_INTRODUCED_24_,X_INTRODUCED_26_,X_INTRODUCED_28_,X_INTRODUCED_29_,X_INTRODUCED_30_];
array [1..24] of var int: X_INTRODUCED_70_ ::var_is_introduced  = [X_INTRODUCED_2_,X_INTRODUCED_4_,X_INTRODUCED_5_,X_INTRODUCED_6_,X_INTRODUCED_7_,X_INTRODUCED_8_,X_INTRODUCED_9_,X_INTRODUCED_10_,X_INTRODUCED_11_,X_INTRODUCED_12_,X_INTRODUCED_13_,X_INTRODUCED_14_,X_INTRODUCED_15_,X_INTRODUCED_16_,X_INTRODUCED_17_,X_INTRODUCED_19_,X_INTRODUCED_21_,X_INTRODUCED_22_,X_INTRODUCED_24_,X_INTRODUCED_25_,X_INTRODUCED_26_,X_INTRODUCED_28_,X_INTRODUCED_29_,X_INTRODUCED_30_];
array [1..24] of var int: X_INTRODUCED_73_ ::var_is_introduced  = [X_INTRODUCED_1_,X_INTRODUCED_2_,X_INTRODUCED_4_,X_INTRODUCED_5_,X_INTRODUCED_6_,X_INTRODUCED_7_,X_INTRODUCED_10_,X_INTRODUCED_11_,X_INTRODUCED_12_,X_INTRODUCED_14_,X_INTRODUCED_15_,X_INTRODUCED_16_,X_INTRODUCED_17_,X_INTRODUCED_18_,X_INTRODUCED_19_,X_INTRODUCED_20_,X_INTRODUCED_23_,X_INTRODUCED_24_,X_INTRODUCED_25_,X_INTRODUCED_26_,X_INTRODUCED_27_,X_INTRODUCED_28_,X_INTRODUCED_29_,X_INTRODUCED_30_];
array [1..22] of var int: X_INTRODUCED_76_ ::var_is_introduced  = [X_INTRODUCED_1_,X_INTRODUCED_2_,X_INTRODUCED_3_,X_INTRODUCED_4_,X_INTRODUCED_8_,X_INTRODUCED_9_,X_INTRODUCED_10_,X_INTRODUCED_11_,X_INTRODUCED_13_,X_INTRODUCED_14_,X_INTRODUCED_15_,X_INTRODUCED_16_,X_INTRODUCED_17_,X_INTRODUCED_18_,X_INTRODUCED_19_,X_INTRODUCED_22_,X_INTRODUCED_23_,X_INTRODUCED_24_,X_INTRODUCED_25_,X_INTRODUCED_26_,X_INTRODUCED_27_,X_INTRODUCED_28_];
array [1..54] of var int: X_INTRODUCED_239_ ::var_is_introduced  = [objective,X_INTRODUCED_82_,X_INTRODUCED_79_,X_INTRODUCED_88_,X_INTRODUCED_86_,X_INTRODUCED_92_,X_INTRODUCED_95_,X_INTRODUCED_101_,X_INTRODUCED_107_,X_INTRODUCED_105_,X_INTRODUCED_112_,X_INTRODUCED_110_,X_INTRODUCED_115_,X_INTRODUCED_120_,X_INTRODUCED_118_,X_INTRODUCED_126_,X_INTRODUCED_124_,X_INTRODUCED_129_,X_INTRODUCED_134_,X_INTRODUCED_132_,X_INTRODUCED_140_,X_INTRODUCED_138_,X_INTRODUCED_146_,X_INTRODUCED_144_,X_INTRODUCED_151_,X_INTRODUCED_149_,X_INTRODUCED_157_,X_INTRODUCED_155_,X_INTRODUCED_162_,X_INTRODUCED_160_,X_INTRODUCED_166_,X_INTRODUCED_172_,X_INTRODUCED_170_,X_INTRODUCED_178_,X_INTRODUCED_176_,X_INTRODUCED_183_,X_INTRODUCED_181_,X_INTRODUCED_189_,X_INTRODUCED_187_,X_INTRODUCED_192_,X_INTRODUCED_198_,X_INTRODUCED_196_,X_INTRODUCED_204_,X_INTRODUCED_202_,X_INTRODUCED_209_,X_INTRODUCED_207_,X_INTRODUCED_215_,X_INTRODUCED_213_,X_INTRODUCED_221_,X_INTRODUCED_219_,X_INTRODUCED_227_,X_INTRODUCED_225_,X_INTRODUCED_230_,X_INTRODUCED_235_];
constraint int_lin_le(X_INTRODUCED_33_,[X_INTRODUCED_0_,X_INTRODUCED_1_],0);
constraint int_lin_le(X_INTRODUCED_33_,[X_INTRODUCED_0_,X_INTRODUCED_2_],0);
constraint int_lin_le(X_INTRODUCED_33_,[X_INTRODUCED_0_,X_INTRODUCED_3_],0);
constraint int_lin_le(X_INTRODUCED_33_,[X_INTRODUCED_1_,X_INTRODUCED_6_],-4);
constraint int_lin_le(X_INTRODUCED_33_,[X_INTRODUCED_1_,X_INTRODUCED_8_],-4);
constraint int_lin_le(X_INTRODUCED_33_,[X_INTRODUCED_1_,X_INTRODUCED_17_],-4);
constraint int_lin_le(X_INTRODUCED_33_,[X_INTRODUCED_2_,X_INTRODUCED_9_],-2);
constraint int_lin_le(X_INTRODUCED_33_,[X_INTRODUCED_2_,X_INTRODUCED_10_],-2);
constraint int_lin_le(X_INTRODUCED_33_,[X_INTRODUCED_2_,X_INTRODUCED_14_],-2);
constraint int_lin_le(X_INTRODUCED_33_,[X_INTRODUCED_3_,X_INTRODUCED_4_],-1);
constraint int_lin_le(X_INTRODUCED_33_,[X_INTRODUCED_3_,X_INTRODUCED_14_],-1);
constraint int_lin_le(X_INTRODUCED_33_,[X_INTRODUCED_3_,X_INTRODUCED_21_],-1);
constraint int_lin_le(X_INTRODUCED_33_,[X_INTRODUCED_4_,X_INTRODUCED_5_],-2);
constraint int_lin_le(X_INTRODUCED_33_,[X_INTRODUCED_4_,X_INTRODUCED_13_],-2);
constraint int_lin_le(X_INTRODUCED_33_,[X_INTRODUCED_4_,X_INTRODUCED_25_],-2);
constraint int_lin_le(X_INTRODUCED_33_,[X_INTRODUCED_5_,X_INTRODUCED_16_],-3);
constraint int_lin_le(X_INTRODUCED_33_,[X_INTRODUCED_5_,X_INTRODUCED_17_],-3);
constraint int_lin_le(X_INTRODUCED_33_,[X_INTRODUCED_5_,X_INTRODUCED_20_],-3);
constraint int_lin_le(X_INTRODUCED_33_,[X_INTRODUCED_6_,X_INTRODUCED_7_],-9);
constraint int_lin_le(X_INTRODUCED_33_,[X_INTRODUCED_6_,X_INTRODUCED_12_],-9);
constraint int_lin_le(X_INTRODUCED_33_,[X_INTRODUCED_6_,X_INTRODUCED_13_],-9);
constraint int_lin_le(X_INTRODUCED_33_,[X_INTRODUCED_7_,X_INTRODUCED_15_],-9);
constraint int_lin_le(X_INTRODUCED_33_,[X_INTRODUCED_7_,X_INTRODUCED_18_],-9);
constraint int_lin_le(X_INTRODUCED_33_,[X_INTRODUCED_7_,X_INTRODUCED_23_],-9);
constraint int_lin_le(X_INTRODUCED_33_,[X_INTRODUCED_8_,X_INTRODUCED_9_],-3);
constraint int_lin_le(X_INTRODUCED_33_,[X_INTRODUCED_8_,X_INTRODUCED_14_],-3);
constraint int_lin_le(X_INTRODUCED_33_,[X_INTRODUCED_8_,X_INTRODUCED_25_],-3);
constraint int_lin_le(X_INTRODUCED_33_,[X_INTRODUCED_9_,X_INTRODUCED_11_],-7);
constraint int_lin_le(X_INTRODUCED_33_,[X_INTRODUCED_9_,X_INTRODUCED_15_],-7);
constraint int_lin_le(X_INTRODUCED_33_,[X_INTRODUCED_9_,X_INTRODUCED_30_],-7);
constraint int_lin_le(X_INTRODUCED_33_,[X_INTRODUCED_10_,X_INTRODUCED_11_],-10);
constraint int_lin_le(X_INTRODUCED_33_,[X_INTRODUCED_10_,X_INTRODUCED_15_],-10);
constraint int_lin_le(X_INTRODUCED_33_,[X_INTRODUCED_10_,X_INTRODUCED_19_],-10);
constraint int_lin_le(X_INTRODUCED_33_,[X_INTRODUCED_11_,X_INTRODUCED_13_],-8);
constraint int_lin_le(X_INTRODUCED_33_,[X_INTRODUCED_11_,X_INTRODUCED_18_],-8);
constraint int_lin_le(X_INTRODUCED_33_,[X_INTRODUCED_12_,X_INTRODUCED_18_],-4);
constraint int_lin_le(X_INTRODUCED_33_,[X_INTRODUCED_12_,X_INTRODUCED_21_],-4);
constraint int_lin_le(X_INTRODUCED_33_,[X_INTRODUCED_12_,X_INTRODUCED_22_],-4);
constraint int_lin_le(X_INTRODUCED_33_,[X_INTRODUCED_13_,X_INTRODUCED_16_],-6);
constraint int_lin_le(X_INTRODUCED_33_,[X_INTRODUCED_13_,X_INTRODUCED_23_],-6);
constraint int_lin_le(X_INTRODUCED_33_,[X_INTRODUCED_14_,X_INTRODUCED_16_],-3);
constraint int_lin_le(X_INTRODUCED_33_,[X_INTRODUCED_14_,X_INTRODUCED_24_],-3);
constraint int_lin_le(X_INTRODUCED_33_,[X_INTRODUCED_15_,X_INTRODUCED_20_],-9);
constraint int_lin_le(X_INTRODUCED_33_,[X_INTRODUCED_15_,X_INTRODUCED_27_],-9);
constraint int_lin_le(X_INTRODUCED_33_,[X_INTRODUCED_16_,X_INTRODUCED_22_],-6);
constraint int_lin_le(X_INTRODUCED_33_,[X_INTRODUCED_16_,X_INTRODUCED_28_],-6);
constraint int_lin_le(X_INTRODUCED_33_,[X_INTRODUCED_17_,X_INTRODUCED_24_],-8);
constraint int_lin_le(X_INTRODUCED_33_,[X_INTRODUCED_17_,X_INTRODUCED_30_],-8);
constraint int_lin_le(X_INTRODUCED_33_,[X_INTRODUCED_18_,X_INTRODUCED_20_],-4);
constraint int_lin_le(X_INTRODUCED_33_,[X_INTRODUCED_18_,X_INTRODUCED_27_],-4);
constraint int_lin_le(X_INTRODUCED_33_,[X_INTRODUCED_19_,X_INTRODUCED_21_],-3);
constraint int_lin_le(X_INTRODUCED_33_,[X_INTRODUCED_19_,X_INTRODUCED_22_],-3);
constraint int_lin_le(X_INTRODUCED_33_,[X_INTRODUCED_19_,X_INTRODUCED_25_],-3);
constraint int_lin_le(X_INTRODUCED_33_,[X_INTRODUCED_20_,X_INTRODUCED_26_],-4);
constraint int_lin_le(X_INTRODUCED_33_,[X_INTRODUCED_20_,X_INTRODUCED_29_],-4);
constraint int_lin_le(X_INTRODUCED_33_,[X_INTRODUCED_21_,X_INTRODUCED_23_],-5);
constraint int_lin_le(X_INTRODUCED_33_,[X_INTRODUCED_21_,X_INTRODUCED_26_],-5);
constraint int_lin_le(X_INTRODUCED_33_,[X_INTRODUCED_22_,X_INTRODUCED_27_],-6);
constraint int_lin_le(X_INTRODUCED_33_,[X_INTRODUCED_23_,X_INTRODUCED_24_],-7);
constraint int_lin_le(X_INTRODUCED_33_,[X_INTRODUCED_23_,X_INTRODUCED_28_],-7);
constraint int_lin_le(X_INTRODUCED_33_,[X_INTRODUCED_24_,X_INTRODUCED_29_],-9);
constraint int_lin_le(X_INTRODUCED_33_,[X_INTRODUCED_25_,X_INTRODUCED_26_],-5);
constraint int_lin_le(X_INTRODUCED_33_,[X_INTRODUCED_25_,X_INTRODUCED_30_],-5);
constraint int_lin_le(X_INTRODUCED_33_,[X_INTRODUCED_26_,X_INTRODUCED_28_],-1);
constraint int_lin_le(X_INTRODUCED_33_,[X_INTRODUCED_27_,X_INTRODUCED_29_],-4);
constraint int_lin_le(X_INTRODUCED_33_,[X_INTRODUCED_28_,X_INTRODUCED_31_],-5);
constraint int_lin_le(X_INTRODUCED_33_,[X_INTRODUCED_29_,X_INTRODUCED_31_],-5);
constraint int_lin_le(X_INTRODUCED_33_,[X_INTRODUCED_30_,X_INTRODUCED_31_],-1);
constraint cumulativeChoco(X_INTRODUCED_67_,X_INTRODUCED_66_,X_INTRODUCED_65_,21);
constraint cumulativeChoco(X_INTRODUCED_70_,X_INTRODUCED_69_,X_INTRODUCED_68_,34);
constraint cumulativeChoco(X_INTRODUCED_73_,X_INTRODUCED_72_,X_INTRODUCED_71_,27);
constraint cumulativeChoco(X_INTRODUCED_76_,X_INTRODUCED_75_,X_INTRODUCED_74_,26);
constraint int_max(0,X_INTRODUCED_78_,X_INTRODUCED_79_):: defines_var(X_INTRODUCED_79_);
constraint int_max(0,X_INTRODUCED_81_,X_INTRODUCED_82_):: defines_var(X_INTRODUCED_82_);
constraint int_max(0,X_INTRODUCED_85_,X_INTRODUCED_86_):: defines_var(X_INTRODUCED_86_);
constraint int_max(0,X_INTRODUCED_87_,X_INTRODUCED_88_):: defines_var(X_INTRODUCED_88_);
constraint int_max(0,X_INTRODUCED_91_,X_INTRODUCED_92_):: defines_var(X_INTRODUCED_92_);
constraint int_max(0,X_INTRODUCED_3_,X_INTRODUCED_95_):: defines_var(X_INTRODUCED_95_);
constraint int_max(0,X_INTRODUCED_96_,0);
constraint int_max(0,X_INTRODUCED_100_,X_INTRODUCED_101_):: defines_var(X_INTRODUCED_101_);
constraint int_max(0,X_INTRODUCED_104_,X_INTRODUCED_105_):: defines_var(X_INTRODUCED_105_);
constraint int_max(0,X_INTRODUCED_106_,X_INTRODUCED_107_):: defines_var(X_INTRODUCED_107_);
constraint int_max(0,X_INTRODUCED_109_,X_INTRODUCED_110_):: defines_var(X_INTRODUCED_110_);
constraint int_max(0,X_INTRODUCED_111_,X_INTRODUCED_112_):: defines_var(X_INTRODUCED_112_);
constraint int_max(0,X_INTRODUCED_114_,X_INTRODUCED_115_):: defines_var(X_INTRODUCED_115_);
constraint int_max(0,X_INTRODUCED_117_,X_INTRODUCED_118_):: defines_var(X_INTRODUCED_118_);
constraint int_max(0,X_INTRODUCED_119_,X_INTRODUCED_120_):: defines_var(X_INTRODUCED_120_);
constraint int_max(0,X_INTRODUCED_123_,X_INTRODUCED_124_):: defines_var(X_INTRODUCED_124_);
constraint int_max(0,X_INTRODUCED_125_,X_INTRODUCED_126_):: defines_var(X_INTRODUCED_126_);
constraint int_max(0,X_INTRODUCED_128_,X_INTRODUCED_129_):: defines_var(X_INTRODUCED_129_);
constraint int_max(0,X_INTRODUCED_131_,X_INTRODUCED_132_):: defines_var(X_INTRODUCED_132_);
constraint int_max(0,X_INTRODUCED_133_,X_INTRODUCED_134_):: defines_var(X_INTRODUCED_134_);
constraint int_max(0,X_INTRODUCED_137_,X_INTRODUCED_138_):: defines_var(X_INTRODUCED_138_);
constraint int_max(0,X_INTRODUCED_139_,X_INTRODUCED_140_):: defines_var(X_INTRODUCED_140_);
constraint int_max(0,X_INTRODUCED_143_,X_INTRODUCED_144_):: defines_var(X_INTRODUCED_144_);
constraint int_max(0,X_INTRODUCED_145_,X_INTRODUCED_146_):: defines_var(X_INTRODUCED_146_);
constraint int_max(0,X_INTRODUCED_148_,X_INTRODUCED_149_):: defines_var(X_INTRODUCED_149_);
constraint int_max(0,X_INTRODUCED_150_,X_INTRODUCED_151_):: defines_var(X_INTRODUCED_151_);
constraint int_max(0,X_INTRODUCED_154_,X_INTRODUCED_155_):: defines_var(X_INTRODUCED_155_);
constraint int_max(0,X_INTRODUCED_156_,X_INTRODUCED_157_):: defines_var(X_INTRODUCED_157_);
constraint int_max(0,X_INTRODUCED_159_,X_INTRODUCED_160_):: defines_var(X_INTRODUCED_160_);
constraint int_max(0,X_INTRODUCED_161_,X_INTRODUCED_162_):: defines_var(X_INTRODUCED_162_);
constraint int_max(0,X_INTRODUCED_165_,X_INTRODUCED_166_):: defines_var(X_INTRODUCED_166_);
constraint int_max(0,X_INTRODUCED_169_,X_INTRODUCED_170_):: defines_var(X_INTRODUCED_170_);
constraint int_max(0,X_INTRODUCED_171_,X_INTRODUCED_172_):: defines_var(X_INTRODUCED_172_);
constraint int_max(0,X_INTRODUCED_175_,X_INTRODUCED_176_):: defines_var(X_INTRODUCED_176_);
constraint int_max(0,X_INTRODUCED_177_,X_INTRODUCED_178_):: defines_var(X_INTRODUCED_178_);
constraint int_max(0,X_INTRODUCED_180_,X_INTRODUCED_181_):: defines_var(X_INTRODUCED_181_);
constraint int_max(0,X_INTRODUCED_182_,X_INTRODUCED_183_):: defines_var(X_INTRODUCED_183_);
constraint int_max(0,X_INTRODUCED_186_,X_INTRODUCED_187_):: defines_var(X_INTRODUCED_187_);
constraint int_max(0,X_INTRODUCED_188_,X_INTRODUCED_189_):: defines_var(X_INTRODUCED_189_);
constraint int_max(0,X_INTRODUCED_191_,X_INTRODUCED_192_):: defines_var(X_INTRODUCED_192_);
constraint int_max(0,X_INTRODUCED_195_,X_INTRODUCED_196_):: defines_var(X_INTRODUCED_196_);
constraint int_max(0,X_INTRODUCED_197_,X_INTRODUCED_198_):: defines_var(X_INTRODUCED_198_);
constraint int_max(0,X_INTRODUCED_201_,X_INTRODUCED_202_):: defines_var(X_INTRODUCED_202_);
constraint int_max(0,X_INTRODUCED_203_,X_INTRODUCED_204_):: defines_var(X_INTRODUCED_204_);
constraint int_max(0,X_INTRODUCED_206_,X_INTRODUCED_207_):: defines_var(X_INTRODUCED_207_);
constraint int_max(0,X_INTRODUCED_208_,X_INTRODUCED_209_):: defines_var(X_INTRODUCED_209_);
constraint int_max(0,X_INTRODUCED_212_,X_INTRODUCED_213_):: defines_var(X_INTRODUCED_213_);
constraint int_max(0,X_INTRODUCED_214_,X_INTRODUCED_215_):: defines_var(X_INTRODUCED_215_);
constraint int_max(0,X_INTRODUCED_218_,X_INTRODUCED_219_):: defines_var(X_INTRODUCED_219_);
constraint int_max(0,X_INTRODUCED_220_,X_INTRODUCED_221_):: defines_var(X_INTRODUCED_221_);
constraint int_max(0,X_INTRODUCED_224_,X_INTRODUCED_225_):: defines_var(X_INTRODUCED_225_);
constraint int_max(0,X_INTRODUCED_226_,X_INTRODUCED_227_):: defines_var(X_INTRODUCED_227_);
constraint int_max(0,X_INTRODUCED_229_,X_INTRODUCED_230_):: defines_var(X_INTRODUCED_230_);
constraint int_max(0,X_INTRODUCED_232_,0);
constraint int_max(0,X_INTRODUCED_234_,X_INTRODUCED_235_):: defines_var(X_INTRODUCED_235_);
constraint int_lin_eq(X_INTRODUCED_240_,X_INTRODUCED_239_,0):: defines_var(objective);
constraint int_lin_eq([1,-1],[X_INTRODUCED_0_,X_INTRODUCED_78_],1):: defines_var(X_INTRODUCED_78_);
constraint int_lin_eq([-1,-1],[X_INTRODUCED_0_,X_INTRODUCED_81_],-1):: defines_var(X_INTRODUCED_81_);
constraint int_lin_eq([1,-1],[X_INTRODUCED_1_,X_INTRODUCED_85_],2):: defines_var(X_INTRODUCED_85_);
constraint int_lin_eq([-1,-1],[X_INTRODUCED_1_,X_INTRODUCED_87_],-2):: defines_var(X_INTRODUCED_87_);
constraint int_lin_eq([-1,-1],[X_INTRODUCED_2_,X_INTRODUCED_91_],-7):: defines_var(X_INTRODUCED_91_);
constraint int_lin_eq([-1,-1],[X_INTRODUCED_3_,X_INTRODUCED_96_],0):: defines_var(X_INTRODUCED_96_);
constraint int_lin_eq([1,-1],[X_INTRODUCED_4_,X_INTRODUCED_100_],9):: defines_var(X_INTRODUCED_100_);
constraint int_lin_eq([1,-1],[X_INTRODUCED_5_,X_INTRODUCED_104_],10):: defines_var(X_INTRODUCED_104_);
constraint int_lin_eq([-1,-1],[X_INTRODUCED_5_,X_INTRODUCED_106_],-10):: defines_var(X_INTRODUCED_106_);
constraint int_lin_eq([1,-1],[X_INTRODUCED_7_,X_INTRODUCED_109_],18):: defines_var(X_INTRODUCED_109_);
constraint int_lin_eq([-1,-1],[X_INTRODUCED_7_,X_INTRODUCED_111_],-18):: defines_var(X_INTRODUCED_111_);
constraint int_lin_eq([-1,-1],[X_INTRODUCED_8_,X_INTRODUCED_114_],-6):: defines_var(X_INTRODUCED_114_);
constraint int_lin_eq([1,-1],[X_INTRODUCED_9_,X_INTRODUCED_117_],9):: defines_var(X_INTRODUCED_117_);
constraint int_lin_eq([-1,-1],[X_INTRODUCED_9_,X_INTRODUCED_119_],-9):: defines_var(X_INTRODUCED_119_);
constraint int_lin_eq([1,-1],[X_INTRODUCED_10_,X_INTRODUCED_123_],4):: defines_var(X_INTRODUCED_123_);
constraint int_lin_eq([-1,-1],[X_INTRODUCED_10_,X_INTRODUCED_125_],-4):: defines_var(X_INTRODUCED_125_);
constraint int_lin_eq([-1,-1],[X_INTRODUCED_11_,X_INTRODUCED_128_],-19):: defines_var(X_INTRODUCED_128_);
constraint int_lin_eq([1,-1],[X_INTRODUCED_12_,X_INTRODUCED_131_],22):: defines_var(X_INTRODUCED_131_);
constraint int_lin_eq([-1,-1],[X_INTRODUCED_12_,X_INTRODUCED_133_],-22):: defines_var(X_INTRODUCED_133_);
constraint int_lin_eq([1,-1],[X_INTRODUCED_13_,X_INTRODUCED_137_],24):: defines_var(X_INTRODUCED_137_);
constraint int_lin_eq([-1,-1],[X_INTRODUCED_13_,X_INTRODUCED_139_],-24):: defines_var(X_INTRODUCED_139_);
constraint int_lin_eq([1,-1],[X_INTRODUCED_14_,X_INTRODUCED_143_],8):: defines_var(X_INTRODUCED_143_);
constraint int_lin_eq([-1,-1],[X_INTRODUCED_14_,X_INTRODUCED_145_],-8):: defines_var(X_INTRODUCED_145_);
constraint int_lin_eq([1,-1],[X_INTRODUCED_15_,X_INTRODUCED_148_],29):: defines_var(X_INTRODUCED_148_);
constraint int_lin_eq([-1,-1],[X_INTRODUCED_15_,X_INTRODUCED_150_],-29):: defines_var(X_INTRODUCED_150_);
constraint int_lin_eq([1,-1],[X_INTRODUCED_16_,X_INTRODUCED_154_],37):: defines_var(X_INTRODUCED_154_);
constraint int_lin_eq([-1,-1],[X_INTRODUCED_16_,X_INTRODUCED_156_],-37):: defines_var(X_INTRODUCED_156_);
constraint int_lin_eq([1,-1],[X_INTRODUCED_17_,X_INTRODUCED_159_],12):: defines_var(X_INTRODUCED_159_);
constraint int_lin_eq([-1,-1],[X_INTRODUCED_17_,X_INTRODUCED_161_],-12):: defines_var(X_INTRODUCED_161_);
constraint int_lin_eq([-1,-1],[X_INTRODUCED_18_,X_INTRODUCED_165_],-27):: defines_var(X_INTRODUCED_165_);
constraint int_lin_eq([1,-1],[X_INTRODUCED_19_,X_INTRODUCED_169_],14):: defines_var(X_INTRODUCED_169_);
constraint int_lin_eq([-1,-1],[X_INTRODUCED_19_,X_INTRODUCED_171_],-14):: defines_var(X_INTRODUCED_171_);
constraint int_lin_eq([1,-1],[X_INTRODUCED_20_,X_INTRODUCED_175_],32):: defines_var(X_INTRODUCED_175_);
constraint int_lin_eq([-1,-1],[X_INTRODUCED_20_,X_INTRODUCED_177_],-32):: defines_var(X_INTRODUCED_177_);
constraint int_lin_eq([1,-1],[X_INTRODUCED_21_,X_INTRODUCED_180_],24):: defines_var(X_INTRODUCED_180_);
constraint int_lin_eq([-1,-1],[X_INTRODUCED_21_,X_INTRODUCED_182_],-24):: defines_var(X_INTRODUCED_182_);
constraint int_lin_eq([1,-1],[X_INTRODUCED_22_,X_INTRODUCED_186_],39):: defines_var(X_INTRODUCED_186_);
constraint int_lin_eq([-1,-1],[X_INTRODUCED_22_,X_INTRODUCED_188_],-39):: defines_var(X_INTRODUCED_188_);
constraint int_lin_eq([-1,-1],[X_INTRODUCED_23_,X_INTRODUCED_191_],-32):: defines_var(X_INTRODUCED_191_);
constraint int_lin_eq([1,-1],[X_INTRODUCED_24_,X_INTRODUCED_195_],35):: defines_var(X_INTRODUCED_195_);
constraint int_lin_eq([-1,-1],[X_INTRODUCED_24_,X_INTRODUCED_197_],-35):: defines_var(X_INTRODUCED_197_);
constraint int_lin_eq([1,-1],[X_INTRODUCED_25_,X_INTRODUCED_201_],21):: defines_var(X_INTRODUCED_201_);
constraint int_lin_eq([-1,-1],[X_INTRODUCED_25_,X_INTRODUCED_203_],-21):: defines_var(X_INTRODUCED_203_);
constraint int_lin_eq([1,-1],[X_INTRODUCED_26_,X_INTRODUCED_206_],40):: defines_var(X_INTRODUCED_206_);
constraint int_lin_eq([-1,-1],[X_INTRODUCED_26_,X_INTRODUCED_208_],-40):: defines_var(X_INTRODUCED_208_);
constraint int_lin_eq([1,-1],[X_INTRODUCED_27_,X_INTRODUCED_212_],45):: defines_var(X_INTRODUCED_212_);
constraint int_lin_eq([-1,-1],[X_INTRODUCED_27_,X_INTRODUCED_214_],-45):: defines_var(X_INTRODUCED_214_);
constraint int_lin_eq([1,-1],[X_INTRODUCED_28_,X_INTRODUCED_218_],41):: defines_var(X_INTRODUCED_218_);
constraint int_lin_eq([-1,-1],[X_INTRODUCED_28_,X_INTRODUCED_220_],-41):: defines_var(X_INTRODUCED_220_);
constraint int_lin_eq([1,-1],[X_INTRODUCED_29_,X_INTRODUCED_224_],49):: defines_var(X_INTRODUCED_224_);
constraint int_lin_eq([-1,-1],[X_INTRODUCED_29_,X_INTRODUCED_226_],-49):: defines_var(X_INTRODUCED_226_);
constraint int_lin_eq([1,-1],[X_INTRODUCED_30_,X_INTRODUCED_229_],30):: defines_var(X_INTRODUCED_229_);
constraint int_lin_eq([1,-1],[X_INTRODUCED_31_,X_INTRODUCED_232_],58):: defines_var(X_INTRODUCED_232_);
constraint int_lin_eq([-1,-1],[X_INTRODUCED_31_,X_INTRODUCED_234_],-58):: defines_var(X_INTRODUCED_234_);
solve :: int_search(s,first_fail,indomain_min,complete) minimize objective;
